c Mesh Graph
c 10 Rows, 100 columns, capacities in range [0, 100]
p max 1002 2990
n 1 s
n 1002 t
a 1 11 300
a 1 10 300
a 1 9 300
a 1 8 300
a 1 7 300
a 1 6 300
a 1 5 300
a 1 4 300
a 1 3 300
a 1 2 300
a 2 13 78
a 2 12 87
a 2 21 84
a 3 14 36
a 3 13 94
a 3 12 16
a 4 15 50
a 4 14 93
a 4 13 87
a 5 16 28
a 5 15 63
a 5 14 22
a 6 17 64
a 6 16 60
a 6 15 91
a 7 18 27
a 7 17 41
a 7 16 27
a 8 19 12
a 8 18 37
a 8 17 73
a 9 20 30
a 9 19 68
a 9 18 69
a 10 21 63
a 10 20 31
a 10 19 83
a 11 12 36
a 11 21 68
a 11 20 24
a 12 23 23
a 12 22 3
a 12 31 30
a 13 24 68
a 13 23 70
a 13 22 59
a 14 25 12
a 14 24 57
a 14 23 94
a 15 26 74
a 15 25 30
a 15 24 43
a 16 27 85
a 16 26 20
a 16 25 22
a 17 28 25
a 17 27 99
a 17 26 38
a 18 29 14
a 18 28 71
a 18 27 16
a 19 30 81
a 19 29 92
a 19 28 27
a 20 31 63
a 20 30 74
a 20 29 57
a 21 22 82
a 21 31 97
a 21 30 71
a 22 33 85
a 22 32 26
a 22 41 6
a 23 34 6
a 23 33 37
a 23 32 28
a 24 35 14
a 24 34 30
a 24 33 47
a 25 36 96
a 25 35 25
a 25 34 58
a 26 37 15
a 26 36 46
a 26 35 83
a 27 38 65
a 27 37 35
a 27 36 68
a 28 39 88
a 28 38 51
a 28 37 44
a 29 40 79
a 29 39 77
a 29 38 9
a 30 41 4
a 30 40 85
a 30 39 89
a 31 32 100
a 31 41 55
a 31 40 52
a 32 43 77
a 32 42 61
a 32 51 33
a 33 44 13
a 33 43 40
a 33 42 69
a 34 45 95
a 34 44 87
a 34 43 27
a 35 46 71
a 35 45 96
a 35 44 40
a 36 47 68
a 36 46 79
a 36 45 35
a 37 48 3
a 37 47 98
a 37 46 2
a 38 49 53
a 38 48 93
a 38 47 18
a 39 50 81
a 39 49 2
a 39 48 57
a 40 51 66
a 40 50 42
a 40 49 87
a 41 42 20
a 41 51 45
a 41 50 90
a 42 53 32
a 42 52 30
a 42 61 41
a 43 54 72
a 43 53 98
a 43 52 18
a 44 55 10
a 44 54 76
a 44 53 82
a 45 56 57
a 45 55 68
a 45 54 28
a 46 57 87
a 46 56 54
a 46 55 98
a 47 58 84
a 47 57 7
a 47 56 66
a 48 59 29
a 48 58 25
a 48 57 20
a 49 60 30
a 49 59 33
a 49 58 72
a 50 61 71
a 50 60 20
a 50 59 4
a 51 52 16
a 51 61 9
a 51 60 69
a 52 63 97
a 52 62 50
a 52 71 41
a 53 64 46
a 53 63 19
a 53 62 24
a 54 65 22
a 54 64 52
a 54 63 47
a 55 66 89
a 55 65 80
a 55 64 56
a 56 67 42
a 56 66 29
a 56 65 65
a 57 68 1
a 57 67 94
a 57 66 51
a 58 69 25
a 58 68 65
a 58 67 35
a 59 70 57
a 59 69 88
a 59 68 15
a 60 71 28
a 60 70 92
a 60 69 44
a 61 62 37
a 61 71 60
a 61 70 66
a 62 73 38
a 62 72 52
a 62 81 33
a 63 74 8
a 63 73 76
a 63 72 29
a 64 75 59
a 64 74 22
a 64 73 75
a 65 76 38
a 65 75 30
a 65 74 96
a 66 77 19
a 66 76 94
a 66 75 36
a 67 78 12
a 67 77 44
a 67 76 29
a 68 79 77
a 68 78 30
a 68 77 29
a 69 80 64
a 69 79 44
a 69 78 5
a 70 81 7
a 70 80 39
a 70 79 14
a 71 72 19
a 71 81 5
a 71 80 41
a 72 83 70
a 72 82 89
a 72 91 29
a 73 84 97
a 73 83 18
a 73 82 18
a 74 85 71
a 74 84 44
a 74 83 25
a 75 86 100
a 75 85 91
a 75 84 84
a 76 87 45
a 76 86 26
a 76 85 73
a 77 88 40
a 77 87 6
a 77 86 91
a 78 89 70
a 78 88 87
a 78 87 55
a 79 90 65
a 79 89 43
a 79 88 83
a 80 91 56
a 80 90 8
a 80 89 98
a 81 82 12
a 81 91 49
a 81 90 5
a 82 93 100
a 82 92 29
a 82 101 23
a 83 94 69
a 83 93 47
a 83 92 44
a 84 95 12
a 84 94 23
a 84 93 41
a 85 96 2
a 85 95 6
a 85 94 11
a 86 97 79
a 86 96 31
a 86 95 62
a 87 98 37
a 87 97 21
a 87 96 6
a 88 99 23
a 88 98 27
a 88 97 45
a 89 100 17
a 89 99 9
a 89 98 66
a 90 101 25
a 90 100 59
a 90 99 83
a 91 92 25
a 91 101 63
a 91 100 38
a 92 103 53
a 92 102 37
a 92 111 1
a 93 104 51
a 93 103 80
a 93 102 100
a 94 105 74
a 94 104 72
a 94 103 69
a 95 106 31
a 95 105 82
a 95 104 32
a 96 107 61
a 96 106 95
a 96 105 34
a 97 108 82
a 97 107 100
a 97 106 64
a 98 109 60
a 98 108 97
a 98 107 100
a 99 110 69
a 99 109 14
a 99 108 74
a 100 111 27
a 100 110 96
a 100 109 91
a 101 102 41
a 101 111 85
a 101 110 67
a 102 113 77
a 102 112 85
a 102 121 91
a 103 114 8
a 103 113 37
a 103 112 43
a 104 115 80
a 104 114 57
a 104 113 46
a 105 116 13
a 105 115 88
a 105 114 19
a 106 117 60
a 106 116 73
a 106 115 49
a 107 118 11
a 107 117 37
a 107 116 10
a 108 119 7
a 108 118 88
a 108 117 43
a 109 120 73
a 109 119 14
a 109 118 2
a 110 121 20
a 110 120 56
a 110 119 22
a 111 112 5
a 111 121 22
a 111 120 100
a 112 123 41
a 112 122 12
a 112 131 40
a 113 124 29
a 113 123 6
a 113 122 68
a 114 125 85
a 114 124 51
a 114 123 28
a 115 126 25
a 115 125 21
a 115 124 59
a 116 127 97
a 116 126 70
a 116 125 23
a 117 128 85
a 117 127 31
a 117 126 82
a 118 129 73
a 118 128 73
a 118 127 93
a 119 130 86
a 119 129 26
a 119 128 51
a 120 131 41
a 120 130 100
a 120 129 23
a 121 122 14
a 121 131 99
a 121 130 43
a 122 133 25
a 122 132 91
a 122 141 99
a 123 134 82
a 123 133 10
a 123 132 91
a 124 135 33
a 124 134 37
a 124 133 20
a 125 136 5
a 125 135 95
a 125 134 56
a 126 137 74
a 126 136 70
a 126 135 80
a 127 138 56
a 127 137 51
a 127 136 77
a 128 139 80
a 128 138 43
a 128 137 61
a 129 140 6
a 129 139 94
a 129 138 85
a 130 141 5
a 130 140 68
a 130 139 22
a 131 132 55
a 131 141 62
a 131 140 14
a 132 143 45
a 132 142 60
a 132 151 27
a 133 144 7
a 133 143 3
a 133 142 3
a 134 145 43
a 134 144 22
a 134 143 85
a 135 146 90
a 135 145 29
a 135 144 69
a 136 147 59
a 136 146 9
a 136 145 73
a 137 148 9
a 137 147 37
a 137 146 99
a 138 149 4
a 138 148 49
a 138 147 54
a 139 150 49
a 139 149 34
a 139 148 34
a 140 151 68
a 140 150 55
a 140 149 91
a 141 142 30
a 141 151 69
a 141 150 47
a 142 153 89
a 142 152 47
a 142 161 1
a 143 154 91
a 143 153 50
a 143 152 98
a 144 155 64
a 144 154 34
a 144 153 4
a 145 156 93
a 145 155 54
a 145 154 98
a 146 157 53
a 146 156 26
a 146 155 87
a 147 158 89
a 147 157 76
a 147 156 97
a 148 159 37
a 148 158 30
a 148 157 58
a 149 160 22
a 149 159 15
a 149 158 61
a 150 161 29
a 150 160 5
a 150 159 61
a 151 152 49
a 151 161 51
a 151 160 28
a 152 163 95
a 152 162 3
a 152 171 57
a 153 164 44
a 153 163 100
a 153 162 98
a 154 165 29
a 154 164 3
a 154 163 40
a 155 166 82
a 155 165 1
a 155 164 4
a 156 167 60
a 156 166 39
a 156 165 48
a 157 168 35
a 157 167 36
a 157 166 52
a 158 169 16
a 158 168 93
a 158 167 40
a 159 170 30
a 159 169 5
a 159 168 28
a 160 171 86
a 160 170 65
a 160 169 50
a 161 162 36
a 161 171 44
a 161 170 30
a 162 173 39
a 162 172 1
a 162 181 78
a 163 174 90
a 163 173 50
a 163 172 72
a 164 175 93
a 164 174 89
a 164 173 68
a 165 176 45
a 165 175 44
a 165 174 96
a 166 177 83
a 166 176 91
a 166 175 30
a 167 178 70
a 167 177 42
a 167 176 41
a 168 179 62
a 168 178 33
a 168 177 27
a 169 180 18
a 169 179 61
a 169 178 43
a 170 181 82
a 170 180 62
a 170 179 24
a 171 172 26
a 171 181 91
a 171 180 10
a 172 183 78
a 172 182 68
a 172 191 97
a 173 184 27
a 173 183 91
a 173 182 35
a 174 185 15
a 174 184 58
a 174 183 25
a 175 186 59
a 175 185 6
a 175 184 69
a 176 187 1
a 176 186 87
a 176 185 13
a 177 188 95
a 177 187 27
a 177 186 47
a 178 189 79
a 178 188 53
a 178 187 17
a 179 190 91
a 179 189 47
a 179 188 30
a 180 191 52
a 180 190 71
a 180 189 48
a 181 182 94
a 181 191 32
a 181 190 81
a 182 193 13
a 182 192 28
a 182 201 58
a 183 194 56
a 183 193 15
a 183 192 87
a 184 195 13
a 184 194 91
a 184 193 13
a 185 196 70
a 185 195 11
a 185 194 80
a 186 197 56
a 186 196 75
a 186 195 90
a 187 198 34
a 187 197 21
a 187 196 42
a 188 199 39
a 188 198 89
a 188 197 88
a 189 200 85
a 189 199 71
a 189 198 67
a 190 201 7
a 190 200 18
a 190 199 57
a 191 192 38
a 191 201 50
a 191 200 61
a 192 203 18
a 192 202 60
a 192 211 6
a 193 204 84
a 193 203 46
a 193 202 19
a 194 205 74
a 194 204 59
a 194 203 74
a 195 206 84
a 195 205 90
a 195 204 38
a 196 207 58
a 196 206 79
a 196 205 8
a 197 208 30
a 197 207 72
a 197 206 15
a 198 209 19
a 198 208 60
a 198 207 1
a 199 210 89
a 199 209 26
a 199 208 39
a 200 211 58
a 200 210 34
a 200 209 75
a 201 202 59
a 201 211 94
a 201 210 82
a 202 213 18
a 202 212 100
a 202 221 71
a 203 214 64
a 203 213 70
a 203 212 40
a 204 215 74
a 204 214 95
a 204 213 23
a 205 216 63
a 205 215 32
a 205 214 48
a 206 217 93
a 206 216 91
a 206 215 83
a 207 218 16
a 207 217 58
a 207 216 92
a 208 219 75
a 208 218 58
a 208 217 22
a 209 220 52
a 209 219 48
a 209 218 92
a 210 221 38
a 210 220 22
a 210 219 32
a 211 212 31
a 211 221 55
a 211 220 41
a 212 223 82
a 212 222 26
a 212 231 99
a 213 224 3
a 213 223 17
a 213 222 17
a 214 225 97
a 214 224 40
a 214 223 32
a 215 226 81
a 215 225 39
a 215 224 5
a 216 227 71
a 216 226 22
a 216 225 19
a 217 228 80
a 217 227 13
a 217 226 63
a 218 229 37
a 218 228 86
a 218 227 78
a 219 230 84
a 219 229 77
a 219 228 5
a 220 231 58
a 220 230 60
a 220 229 8
a 221 222 12
a 221 231 100
a 221 230 45
a 222 233 37
a 222 232 51
a 222 241 28
a 223 234 6
a 223 233 19
a 223 232 61
a 224 235 45
a 224 234 50
a 224 233 64
a 225 236 35
a 225 235 6
a 225 234 12
a 226 237 56
a 226 236 76
a 226 235 92
a 227 238 69
a 227 237 90
a 227 236 15
a 228 239 6
a 228 238 19
a 228 237 94
a 229 240 83
a 229 239 23
a 229 238 83
a 230 241 94
a 230 240 31
a 230 239 18
a 231 232 94
a 231 241 27
a 231 240 75
a 232 243 44
a 232 242 54
a 232 251 87
a 233 244 14
a 233 243 15
a 233 242 75
a 234 245 63
a 234 244 78
a 234 243 80
a 235 246 20
a 235 245 89
a 235 244 76
a 236 247 95
a 236 246 33
a 236 245 11
a 237 248 36
a 237 247 47
a 237 246 18
a 238 249 54
a 238 248 92
a 238 247 38
a 239 250 29
a 239 249 74
a 239 248 44
a 240 251 11
a 240 250 92
a 240 249 26
a 241 242 37
a 241 251 18
a 241 250 19
a 242 253 91
a 242 252 56
a 242 261 64
a 243 254 5
a 243 253 31
a 243 252 59
a 244 255 34
a 244 254 62
a 244 253 72
a 245 256 74
a 245 255 90
a 245 254 86
a 246 257 6
a 246 256 52
a 246 255 5
a 247 258 4
a 247 257 69
a 247 256 51
a 248 259 96
a 248 258 7
a 248 257 86
a 249 260 21
a 249 259 50
a 249 258 40
a 250 261 64
a 250 260 27
a 250 259 68
a 251 252 82
a 251 261 97
a 251 260 78
a 252 263 37
a 252 262 61
a 252 271 66
a 253 264 19
a 253 263 71
a 253 262 56
a 254 265 33
a 254 264 43
a 254 263 12
a 255 266 22
a 255 265 80
a 255 264 97
a 256 267 73
a 256 266 85
a 256 265 71
a 257 268 41
a 257 267 35
a 257 266 28
a 258 269 99
a 258 268 73
a 258 267 84
a 259 270 48
a 259 269 64
a 259 268 31
a 260 271 74
a 260 270 31
a 260 269 51
a 261 262 23
a 261 271 60
a 261 270 15
a 262 273 83
a 262 272 25
a 262 281 48
a 263 274 5
a 263 273 33
a 263 272 36
a 264 275 99
a 264 274 44
a 264 273 55
a 265 276 79
a 265 275 41
a 265 274 87
a 266 277 63
a 266 276 63
a 266 275 60
a 267 278 49
a 267 277 42
a 267 276 84
a 268 279 73
a 268 278 25
a 268 277 24
a 269 280 36
a 269 279 55
a 269 278 23
a 270 281 66
a 270 280 58
a 270 279 22
a 271 272 77
a 271 281 72
a 271 280 48
a 272 283 2
a 272 282 19
a 272 291 70
a 273 284 34
a 273 283 54
a 273 282 4
a 274 285 29
a 274 284 60
a 274 283 8
a 275 286 21
a 275 285 98
a 275 284 7
a 276 287 35
a 276 286 9
a 276 285 85
a 277 288 77
a 277 287 92
a 277 286 99
a 278 289 53
a 278 288 16
a 278 287 99
a 279 290 60
a 279 289 90
a 279 288 72
a 280 291 17
a 280 290 11
a 280 289 7
a 281 282 40
a 281 291 10
a 281 290 25
a 282 293 10
a 282 292 79
a 282 301 1
a 283 294 15
a 283 293 82
a 283 292 54
a 284 295 27
a 284 294 90
a 284 293 39
a 285 296 24
a 285 295 48
a 285 294 68
a 286 297 33
a 286 296 32
a 286 295 88
a 287 298 76
a 287 297 82
a 287 296 23
a 288 299 91
a 288 298 80
a 288 297 51
a 289 300 32
a 289 299 51
a 289 298 55
a 290 301 95
a 290 300 58
a 290 299 14
a 291 292 4
a 291 301 82
a 291 300 82
a 292 303 83
a 292 302 34
a 292 311 21
a 293 304 16
a 293 303 88
a 293 302 82
a 294 305 5
a 294 304 26
a 294 303 97
a 295 306 52
a 295 305 93
a 295 304 23
a 296 307 35
a 296 306 33
a 296 305 98
a 297 308 16
a 297 307 7
a 297 306 82
a 298 309 96
a 298 308 9
a 298 307 58
a 299 310 98
a 299 309 63
a 299 308 100
a 300 311 55
a 300 310 77
a 300 309 84
a 301 302 88
a 301 311 10
a 301 310 78
a 302 313 22
a 302 312 83
a 302 321 33
a 303 314 61
a 303 313 64
a 303 312 67
a 304 315 86
a 304 314 12
a 304 313 83
a 305 316 31
a 305 315 86
a 305 314 87
a 306 317 15
a 306 316 84
a 306 315 91
a 307 318 21
a 307 317 17
a 307 316 77
a 308 319 29
a 308 318 26
a 308 317 93
a 309 320 91
a 309 319 26
a 309 318 40
a 310 321 19
a 310 320 61
a 310 319 37
a 311 312 29
a 311 321 38
a 311 320 44
a 312 323 11
a 312 322 22
a 312 331 83
a 313 324 26
a 313 323 89
a 313 322 56
a 314 325 38
a 314 324 71
a 314 323 16
a 315 326 23
a 315 325 9
a 315 324 54
a 316 327 58
a 316 326 51
a 316 325 84
a 317 328 27
a 317 327 28
a 317 326 98
a 318 329 52
a 318 328 72
a 318 327 70
a 319 330 29
a 319 329 11
a 319 328 50
a 320 331 89
a 320 330 99
a 320 329 40
a 321 322 78
a 321 331 94
a 321 330 11
a 322 333 100
a 322 332 77
a 322 341 91
a 323 334 88
a 323 333 32
a 323 332 53
a 324 335 58
a 324 334 100
a 324 333 78
a 325 336 18
a 325 335 53
a 325 334 67
a 326 337 69
a 326 336 36
a 326 335 42
a 327 338 96
a 327 337 85
a 327 336 99
a 328 339 67
a 328 338 6
a 328 337 77
a 329 340 29
a 329 339 55
a 329 338 29
a 330 341 79
a 330 340 94
a 330 339 9
a 331 332 73
a 331 341 56
a 331 340 98
a 332 343 1
a 332 342 46
a 332 351 75
a 333 344 84
a 333 343 98
a 333 342 26
a 334 345 83
a 334 344 28
a 334 343 13
a 335 346 35
a 335 345 94
a 335 344 22
a 336 347 22
a 336 346 35
a 336 345 40
a 337 348 58
a 337 347 86
a 337 346 60
a 338 349 63
a 338 348 62
a 338 347 55
a 339 350 17
a 339 349 42
a 339 348 73
a 340 351 63
a 340 350 51
a 340 349 53
a 341 342 18
a 341 351 100
a 341 350 83
a 342 353 16
a 342 352 74
a 342 361 55
a 343 354 65
a 343 353 52
a 343 352 7
a 344 355 92
a 344 354 64
a 344 353 91
a 345 356 38
a 345 355 38
a 345 354 73
a 346 357 72
a 346 356 29
a 346 355 60
a 347 358 57
a 347 357 88
a 347 356 81
a 348 359 71
a 348 358 42
a 348 357 91
a 349 360 12
a 349 359 66
a 349 358 53
a 350 361 62
a 350 360 18
a 350 359 70
a 351 352 13
a 351 361 52
a 351 360 84
a 352 363 39
a 352 362 7
a 352 371 1
a 353 364 90
a 353 363 65
a 353 362 68
a 354 365 5
a 354 364 55
a 354 363 33
a 355 366 42
a 355 365 80
a 355 364 76
a 356 367 70
a 356 366 39
a 356 365 13
a 357 368 57
a 357 367 71
a 357 366 37
a 358 369 50
a 358 368 61
a 358 367 45
a 359 370 15
a 359 369 66
a 359 368 15
a 360 371 84
a 360 370 87
a 360 369 27
a 361 362 36
a 361 371 70
a 361 370 40
a 362 373 94
a 362 372 22
a 362 381 53
a 363 374 10
a 363 373 90
a 363 372 91
a 364 375 65
a 364 374 74
a 364 373 32
a 365 376 96
a 365 375 49
a 365 374 36
a 366 377 34
a 366 376 14
a 366 375 78
a 367 378 56
a 367 377 50
a 367 376 99
a 368 379 69
a 368 378 94
a 368 377 56
a 369 380 34
a 369 379 61
a 369 378 57
a 370 381 72
a 370 380 87
a 370 379 24
a 371 372 41
a 371 381 78
a 371 380 59
a 372 383 62
a 372 382 82
a 372 391 46
a 373 384 51
a 373 383 24
a 373 382 91
a 374 385 76
a 374 384 55
a 374 383 1
a 375 386 25
a 375 385 43
a 375 384 65
a 376 387 90
a 376 386 20
a 376 385 60
a 377 388 39
a 377 387 70
a 377 386 45
a 378 389 84
a 378 388 77
a 378 387 52
a 379 390 44
a 379 389 34
a 379 388 20
a 380 391 82
a 380 390 57
a 380 389 5
a 381 382 12
a 381 391 67
a 381 390 76
a 382 393 93
a 382 392 13
a 382 401 68
a 383 394 69
a 383 393 3
a 383 392 30
a 384 395 75
a 384 394 3
a 384 393 32
a 385 396 17
a 385 395 19
a 385 394 8
a 386 397 88
a 386 396 78
a 386 395 84
a 387 398 58
a 387 397 74
a 387 396 73
a 388 399 34
a 388 398 26
a 388 397 63
a 389 400 19
a 389 399 97
a 389 398 98
a 390 401 27
a 390 400 54
a 390 399 42
a 391 392 94
a 391 401 81
a 391 400 75
a 392 403 6
a 392 402 49
a 392 411 86
a 393 404 60
a 393 403 30
a 393 402 31
a 394 405 63
a 394 404 61
a 394 403 99
a 395 406 81
a 395 405 20
a 395 404 25
a 396 407 11
a 396 406 3
a 396 405 42
a 397 408 84
a 397 407 27
a 397 406 81
a 398 409 9
a 398 408 41
a 398 407 90
a 399 410 58
a 399 409 39
a 399 408 24
a 400 411 11
a 400 410 32
a 400 409 94
a 401 402 91
a 401 411 6
a 401 410 21
a 402 413 39
a 402 412 92
a 402 421 14
a 403 414 68
a 403 413 22
a 403 412 71
a 404 415 81
a 404 414 72
a 404 413 30
a 405 416 100
a 405 415 96
a 405 414 44
a 406 417 55
a 406 416 89
a 406 415 25
a 407 418 33
a 407 417 70
a 407 416 87
a 408 419 74
a 408 418 11
a 408 417 70
a 409 420 64
a 409 419 34
a 409 418 31
a 410 421 95
a 410 420 80
a 410 419 88
a 411 412 52
a 411 421 100
a 411 420 50
a 412 423 43
a 412 422 65
a 412 431 40
a 413 424 16
a 413 423 87
a 413 422 31
a 414 425 87
a 414 424 16
a 414 423 50
a 415 426 35
a 415 425 12
a 415 424 82
a 416 427 23
a 416 426 88
a 416 425 34
a 417 428 44
a 417 427 74
a 417 426 88
a 418 429 55
a 418 428 43
a 418 427 20
a 419 430 40
a 419 429 25
a 419 428 45
a 420 431 19
a 420 430 64
a 420 429 60
a 421 422 70
a 421 431 13
a 421 430 54
a 422 433 34
a 422 432 5
a 422 441 6
a 423 434 20
a 423 433 35
a 423 432 100
a 424 435 88
a 424 434 36
a 424 433 16
a 425 436 51
a 425 435 70
a 425 434 54
a 426 437 38
a 426 436 3
a 426 435 88
a 427 438 11
a 427 437 90
a 427 436 63
a 428 439 5
a 428 438 61
a 428 437 6
a 429 440 30
a 429 439 58
a 429 438 12
a 430 441 93
a 430 440 17
a 430 439 4
a 431 432 6
a 431 441 23
a 431 440 22
a 432 443 62
a 432 442 80
a 432 451 44
a 433 444 48
a 433 443 79
a 433 442 29
a 434 445 83
a 434 444 46
a 434 443 1
a 435 446 52
a 435 445 100
a 435 444 88
a 436 447 54
a 436 446 87
a 436 445 90
a 437 448 95
a 437 447 49
a 437 446 27
a 438 449 8
a 438 448 7
a 438 447 37
a 439 450 65
a 439 449 18
a 439 448 93
a 440 451 81
a 440 450 21
a 440 449 22
a 441 442 55
a 441 451 95
a 441 450 67
a 442 453 34
a 442 452 38
a 442 461 24
a 443 454 13
a 443 453 18
a 443 452 85
a 444 455 10
a 444 454 18
a 444 453 32
a 445 456 9
a 445 455 57
a 445 454 66
a 446 457 96
a 446 456 46
a 446 455 70
a 447 458 96
a 447 457 72
a 447 456 23
a 448 459 2
a 448 458 60
a 448 457 70
a 449 460 72
a 449 459 53
a 449 458 77
a 450 461 44
a 450 460 26
a 450 459 41
a 451 452 90
a 451 461 92
a 451 460 73
a 452 463 79
a 452 462 67
a 452 471 28
a 453 464 97
a 453 463 51
a 453 462 13
a 454 465 14
a 454 464 34
a 454 463 25
a 455 466 71
a 455 465 100
a 455 464 87
a 456 467 16
a 456 466 69
a 456 465 95
a 457 468 40
a 457 467 43
a 457 466 42
a 458 469 99
a 458 468 64
a 458 467 38
a 459 470 3
a 459 469 40
a 459 468 91
a 460 471 29
a 460 470 32
a 460 469 14
a 461 462 72
a 461 471 5
a 461 470 58
a 462 473 39
a 462 472 84
a 462 481 47
a 463 474 41
a 463 473 96
a 463 472 26
a 464 475 27
a 464 474 73
a 464 473 22
a 465 476 26
a 465 475 59
a 465 474 35
a 466 477 46
a 466 476 53
a 466 475 57
a 467 478 40
a 467 477 47
a 467 476 73
a 468 479 4
a 468 478 84
a 468 477 12
a 469 480 43
a 469 479 26
a 469 478 62
a 470 481 75
a 470 480 40
a 470 479 17
a 471 472 31
a 471 481 97
a 471 480 45
a 472 483 14
a 472 482 95
a 472 491 68
a 473 484 61
a 473 483 20
a 473 482 58
a 474 485 33
a 474 484 93
a 474 483 51
a 475 486 91
a 475 485 80
a 475 484 77
a 476 487 96
a 476 486 36
a 476 485 54
a 477 488 42
a 477 487 8
a 477 486 99
a 478 489 77
a 478 488 71
a 478 487 38
a 479 490 2
a 479 489 85
a 479 488 41
a 480 491 93
a 480 490 1
a 480 489 84
a 481 482 41
a 481 491 97
a 481 490 10
a 482 493 36
a 482 492 64
a 482 501 40
a 483 494 7
a 483 493 74
a 483 492 5
a 484 495 52
a 484 494 24
a 484 493 65
a 485 496 31
a 485 495 52
a 485 494 50
a 486 497 66
a 486 496 5
a 486 495 40
a 487 498 26
a 487 497 3
a 487 496 87
a 488 499 48
a 488 498 92
a 488 497 80
a 489 500 32
a 489 499 85
a 489 498 8
a 490 501 32
a 490 500 20
a 490 499 62
a 491 492 28
a 491 501 29
a 491 500 54
a 492 503 44
a 492 502 20
a 492 511 95
a 493 504 69
a 493 503 24
a 493 502 82
a 494 505 44
a 494 504 40
a 494 503 88
a 495 506 95
a 495 505 89
a 495 504 39
a 496 507 99
a 496 506 81
a 496 505 21
a 497 508 53
a 497 507 19
a 497 506 87
a 498 509 96
a 498 508 99
a 498 507 64
a 499 510 80
a 499 509 6
a 499 508 11
a 500 511 99
a 500 510 67
a 500 509 43
a 501 502 79
a 501 511 73
a 501 510 26
a 502 513 98
a 502 512 67
a 502 521 54
a 503 514 73
a 503 513 48
a 503 512 49
a 504 515 13
a 504 514 87
a 504 513 17
a 505 516 1
a 505 515 78
a 505 514 60
a 506 517 33
a 506 516 98
a 506 515 54
a 507 518 52
a 507 517 36
a 507 516 4
a 508 519 50
a 508 518 99
a 508 517 8
a 509 520 7
a 509 519 62
a 509 518 55
a 510 521 26
a 510 520 4
a 510 519 35
a 511 512 98
a 511 521 29
a 511 520 85
a 512 523 16
a 512 522 34
a 512 531 64
a 513 524 15
a 513 523 82
a 513 522 61
a 514 525 1
a 514 524 98
a 514 523 86
a 515 526 30
a 515 525 9
a 515 524 98
a 516 527 80
a 516 526 14
a 516 525 50
a 517 528 15
a 517 527 17
a 517 526 35
a 518 529 66
a 518 528 76
a 518 527 86
a 519 530 27
a 519 529 31
a 519 528 87
a 520 531 30
a 520 530 17
a 520 529 93
a 521 522 10
a 521 531 53
a 521 530 70
a 522 533 96
a 522 532 16
a 522 541 67
a 523 534 77
a 523 533 29
a 523 532 34
a 524 535 27
a 524 534 14
a 524 533 48
a 525 536 87
a 525 535 63
a 525 534 1
a 526 537 1
a 526 536 64
a 526 535 30
a 527 538 17
a 527 537 98
a 527 536 9
a 528 539 45
a 528 538 83
a 528 537 76
a 529 540 27
a 529 539 21
a 529 538 41
a 530 541 95
a 530 540 66
a 530 539 19
a 531 532 47
a 531 541 35
a 531 540 100
a 532 543 63
a 532 542 54
a 532 551 9
a 533 544 43
a 533 543 87
a 533 542 4
a 534 545 8
a 534 544 35
a 534 543 33
a 535 546 70
a 535 545 35
a 535 544 11
a 536 547 85
a 536 546 16
a 536 545 97
a 537 548 83
a 537 547 25
a 537 546 97
a 538 549 17
a 538 548 52
a 538 547 66
a 539 550 38
a 539 549 44
a 539 548 62
a 540 551 3
a 540 550 62
a 540 549 88
a 541 542 89
a 541 551 61
a 541 550 82
a 542 553 42
a 542 552 21
a 542 561 80
a 543 554 29
a 543 553 25
a 543 552 94
a 544 555 63
a 544 554 9
a 544 553 36
a 545 556 97
a 545 555 71
a 545 554 43
a 546 557 12
a 546 556 67
a 546 555 64
a 547 558 88
a 547 557 16
a 547 556 1
a 548 559 91
a 548 558 33
a 548 557 35
a 549 560 34
a 549 559 94
a 549 558 51
a 550 561 95
a 550 560 81
a 550 559 40
a 551 552 55
a 551 561 14
a 551 560 94
a 552 563 76
a 552 562 45
a 552 571 83
a 553 564 52
a 553 563 39
a 553 562 24
a 554 565 12
a 554 564 74
a 554 563 52
a 555 566 82
a 555 565 69
a 555 564 66
a 556 567 100
a 556 566 84
a 556 565 14
a 557 568 15
a 557 567 36
a 557 566 78
a 558 569 47
a 558 568 70
a 558 567 65
a 559 570 92
a 559 569 73
a 559 568 8
a 560 571 24
a 560 570 12
a 560 569 41
a 561 562 37
a 561 571 58
a 561 570 88
a 562 573 82
a 562 572 40
a 562 581 94
a 563 574 72
a 563 573 15
a 563 572 21
a 564 575 97
a 564 574 19
a 564 573 72
a 565 576 65
a 565 575 84
a 565 574 35
a 566 577 1
a 566 576 98
a 566 575 68
a 567 578 36
a 567 577 75
a 567 576 68
a 568 579 58
a 568 578 91
a 568 577 34
a 569 580 30
a 569 579 50
a 569 578 33
a 570 581 93
a 570 580 91
a 570 579 24
a 571 572 50
a 571 581 30
a 571 580 48
a 572 583 41
a 572 582 23
a 572 591 36
a 573 584 56
a 573 583 44
a 573 582 69
a 574 585 26
a 574 584 67
a 574 583 40
a 575 586 61
a 575 585 54
a 575 584 37
a 576 587 58
a 576 586 21
a 576 585 53
a 577 588 84
a 577 587 88
a 577 586 5
a 578 589 27
a 578 588 22
a 578 587 41
a 579 590 28
a 579 589 6
a 579 588 98
a 580 591 70
a 580 590 29
a 580 589 79
a 581 582 99
a 581 591 28
a 581 590 71
a 582 593 22
a 582 592 64
a 582 601 21
a 583 594 17
a 583 593 84
a 583 592 61
a 584 595 83
a 584 594 24
a 584 593 68
a 585 596 36
a 585 595 12
a 585 594 93
a 586 597 9
a 586 596 64
a 586 595 54
a 587 598 96
a 587 597 69
a 587 596 63
a 588 599 69
a 588 598 61
a 588 597 99
a 589 600 74
a 589 599 10
a 589 598 77
a 590 601 55
a 590 600 88
a 590 599 4
a 591 592 82
a 591 601 58
a 591 600 74
a 592 603 97
a 592 602 30
a 592 611 24
a 593 604 81
a 593 603 43
a 593 602 45
a 594 605 56
a 594 604 10
a 594 603 13
a 595 606 67
a 595 605 55
a 595 604 48
a 596 607 82
a 596 606 60
a 596 605 35
a 597 608 2
a 597 607 74
a 597 606 43
a 598 609 14
a 598 608 72
a 598 607 39
a 599 610 23
a 599 609 100
a 599 608 59
a 600 611 62
a 600 610 56
a 600 609 85
a 601 602 72
a 601 611 81
a 601 610 91
a 602 613 1
a 602 612 4
a 602 621 24
a 603 614 43
a 603 613 1
a 603 612 21
a 604 615 5
a 604 614 13
a 604 613 53
a 605 616 59
a 605 615 60
a 605 614 8
a 606 617 18
a 606 616 95
a 606 615 26
a 607 618 91
a 607 617 37
a 607 616 59
a 608 619 15
a 608 618 27
a 608 617 61
a 609 620 66
a 609 619 38
a 609 618 74
a 610 621 21
a 610 620 22
a 610 619 49
a 611 612 1
a 611 621 64
a 611 620 10
a 612 623 5
a 612 622 87
a 612 631 33
a 613 624 57
a 613 623 59
a 613 622 34
a 614 625 69
a 614 624 11
a 614 623 28
a 615 626 29
a 615 625 70
a 615 624 32
a 616 627 75
a 616 626 47
a 616 625 42
a 617 628 11
a 617 627 6
a 617 626 59
a 618 629 90
a 618 628 66
a 618 627 2
a 619 630 27
a 619 629 91
a 619 628 68
a 620 631 100
a 620 630 39
a 620 629 33
a 621 622 63
a 621 631 1
a 621 630 6
a 622 633 49
a 622 632 33
a 622 641 58
a 623 634 8
a 623 633 18
a 623 632 62
a 624 635 70
a 624 634 98
a 624 633 70
a 625 636 40
a 625 635 29
a 625 634 39
a 626 637 86
a 626 636 71
a 626 635 19
a 627 638 43
a 627 637 81
a 627 636 93
a 628 639 8
a 628 638 34
a 628 637 55
a 629 640 51
a 629 639 1
a 629 638 44
a 630 641 89
a 630 640 86
a 630 639 22
a 631 632 41
a 631 641 91
a 631 640 21
a 632 643 26
a 632 642 48
a 632 651 35
a 633 644 95
a 633 643 62
a 633 642 84
a 634 645 92
a 634 644 31
a 634 643 43
a 635 646 21
a 635 645 21
a 635 644 64
a 636 647 43
a 636 646 39
a 636 645 55
a 637 648 23
a 637 647 31
a 637 646 93
a 638 649 9
a 638 648 86
a 638 647 35
a 639 650 9
a 639 649 81
a 639 648 95
a 640 651 46
a 640 650 3
a 640 649 45
a 641 642 88
a 641 651 23
a 641 650 85
a 642 653 36
a 642 652 58
a 642 661 26
a 643 654 49
a 643 653 93
a 643 652 3
a 644 655 31
a 644 654 87
a 644 653 97
a 645 656 52
a 645 655 50
a 645 654 41
a 646 657 90
a 646 656 57
a 646 655 13
a 647 658 73
a 647 657 49
a 647 656 55
a 648 659 58
a 648 658 83
a 648 657 29
a 649 660 38
a 649 659 77
a 649 658 89
a 650 661 40
a 650 660 21
a 650 659 98
a 651 652 15
a 651 661 6
a 651 660 95
a 652 663 24
a 652 662 83
a 652 671 83
a 653 664 16
a 653 663 37
a 653 662 70
a 654 665 54
a 654 664 85
a 654 663 18
a 655 666 55
a 655 665 25
a 655 664 100
a 656 667 11
a 656 666 37
a 656 665 51
a 657 668 59
a 657 667 43
a 657 666 93
a 658 669 42
a 658 668 24
a 658 667 65
a 659 670 70
a 659 669 12
a 659 668 22
a 660 671 91
a 660 670 61
a 660 669 11
a 661 662 48
a 661 671 56
a 661 670 3
a 662 673 82
a 662 672 90
a 662 681 17
a 663 674 18
a 663 673 59
a 663 672 40
a 664 675 2
a 664 674 76
a 664 673 7
a 665 676 79
a 665 675 75
a 665 674 12
a 666 677 67
a 666 676 78
a 666 675 66
a 667 678 62
a 667 677 70
a 667 676 77
a 668 679 37
a 668 678 34
a 668 677 35
a 669 680 100
a 669 679 7
a 669 678 28
a 670 681 61
a 670 680 17
a 670 679 98
a 671 672 68
a 671 681 71
a 671 680 40
a 672 683 9
a 672 682 87
a 672 691 87
a 673 684 67
a 673 683 78
a 673 682 68
a 674 685 94
a 674 684 36
a 674 683 37
a 675 686 20
a 675 685 47
a 675 684 38
a 676 687 97
a 676 686 13
a 676 685 68
a 677 688 18
a 677 687 41
a 677 686 35
a 678 689 51
a 678 688 75
a 678 687 96
a 679 690 9
a 679 689 3
a 679 688 32
a 680 691 26
a 680 690 52
a 680 689 31
a 681 682 48
a 681 691 91
a 681 690 43
a 682 693 35
a 682 692 77
a 682 701 62
a 683 694 64
a 683 693 96
a 683 692 70
a 684 695 52
a 684 694 32
a 684 693 36
a 685 696 98
a 685 695 21
a 685 694 81
a 686 697 62
a 686 696 89
a 686 695 1
a 687 698 2
a 687 697 75
a 687 696 97
a 688 699 29
a 688 698 70
a 688 697 15
a 689 700 83
a 689 699 53
a 689 698 17
a 690 701 34
a 690 700 83
a 690 699 26
a 691 692 24
a 691 701 78
a 691 700 3
a 692 703 52
a 692 702 91
a 692 711 50
a 693 704 47
a 693 703 61
a 693 702 36
a 694 705 30
a 694 704 48
a 694 703 100
a 695 706 50
a 695 705 29
a 695 704 3
a 696 707 90
a 696 706 29
a 696 705 100
a 697 708 64
a 697 707 77
a 697 706 14
a 698 709 85
a 698 708 91
a 698 707 67
a 699 710 37
a 699 709 60
a 699 708 95
a 700 711 72
a 700 710 85
a 700 709 77
a 701 702 1
a 701 711 39
a 701 710 10
a 702 713 91
a 702 712 40
a 702 721 85
a 703 714 51
a 703 713 76
a 703 712 36
a 704 715 51
a 704 714 27
a 704 713 82
a 705 716 79
a 705 715 29
a 705 714 63
a 706 717 59
a 706 716 80
a 706 715 65
a 707 718 35
a 707 717 45
a 707 716 54
a 708 719 78
a 708 718 12
a 708 717 70
a 709 720 37
a 709 719 58
a 709 718 6
a 710 721 73
a 710 720 35
a 710 719 43
a 711 712 11
a 711 721 96
a 711 720 66
a 712 723 50
a 712 722 33
a 712 731 66
a 713 724 77
a 713 723 68
a 713 722 8
a 714 725 3
a 714 724 2
a 714 723 59
a 715 726 83
a 715 725 64
a 715 724 61
a 716 727 15
a 716 726 28
a 716 725 39
a 717 728 59
a 717 727 34
a 717 726 97
a 718 729 70
a 718 728 55
a 718 727 31
a 719 730 28
a 719 729 60
a 719 728 8
a 720 731 14
a 720 730 2
a 720 729 96
a 721 722 61
a 721 731 19
a 721 730 68
a 722 733 93
a 722 732 36
a 722 741 30
a 723 734 13
a 723 733 44
a 723 732 32
a 724 735 14
a 724 734 54
a 724 733 8
a 725 736 29
a 725 735 14
a 725 734 63
a 726 737 57
a 726 736 52
a 726 735 97
a 727 738 42
a 727 737 100
a 727 736 11
a 728 739 96
a 728 738 82
a 728 737 70
a 729 740 55
a 729 739 90
a 729 738 91
a 730 741 9
a 730 740 37
a 730 739 70
a 731 732 27
a 731 741 5
a 731 740 83
a 732 743 15
a 732 742 34
a 732 751 96
a 733 744 58
a 733 743 65
a 733 742 88
a 734 745 11
a 734 744 25
a 734 743 52
a 735 746 24
a 735 745 39
a 735 744 65
a 736 747 27
a 736 746 35
a 736 745 94
a 737 748 26
a 737 747 46
a 737 746 2
a 738 749 7
a 738 748 67
a 738 747 95
a 739 750 48
a 739 749 57
a 739 748 90
a 740 751 85
a 740 750 27
a 740 749 96
a 741 742 41
a 741 751 61
a 741 750 4
a 742 753 74
a 742 752 56
a 742 761 83
a 743 754 91
a 743 753 96
a 743 752 49
a 744 755 67
a 744 754 47
a 744 753 6
a 745 756 5
a 745 755 64
a 745 754 68
a 746 757 91
a 746 756 9
a 746 755 91
a 747 758 36
a 747 757 62
a 747 756 69
a 748 759 2
a 748 758 56
a 748 757 94
a 749 760 11
a 749 759 45
a 749 758 52
a 750 761 89
a 750 760 92
a 750 759 52
a 751 752 49
a 751 761 48
a 751 760 36
a 752 763 57
a 752 762 82
a 752 771 76
a 753 764 52
a 753 763 30
a 753 762 1
a 754 765 50
a 754 764 35
a 754 763 43
a 755 766 65
a 755 765 2
a 755 764 61
a 756 767 73
a 756 766 44
a 756 765 65
a 757 768 34
a 757 767 12
a 757 766 56
a 758 769 41
a 758 768 57
a 758 767 43
a 759 770 37
a 759 769 60
a 759 768 97
a 760 771 29
a 760 770 11
a 760 769 59
a 761 762 76
a 761 771 98
a 761 770 47
a 762 773 57
a 762 772 25
a 762 781 95
a 763 774 86
a 763 773 26
a 763 772 51
a 764 775 72
a 764 774 20
a 764 773 54
a 765 776 25
a 765 775 81
a 765 774 56
a 766 777 68
a 766 776 97
a 766 775 20
a 767 778 31
a 767 777 4
a 767 776 45
a 768 779 87
a 768 778 47
a 768 777 30
a 769 780 46
a 769 779 95
a 769 778 71
a 770 781 9
a 770 780 53
a 770 779 59
a 771 772 6
a 771 781 99
a 771 780 87
a 772 783 31
a 772 782 45
a 772 791 14
a 773 784 8
a 773 783 48
a 773 782 22
a 774 785 79
a 774 784 1
a 774 783 59
a 775 786 59
a 775 785 8
a 775 784 30
a 776 787 8
a 776 786 80
a 776 785 54
a 777 788 11
a 777 787 76
a 777 786 73
a 778 789 9
a 778 788 5
a 778 787 3
a 779 790 3
a 779 789 27
a 779 788 41
a 780 791 7
a 780 790 86
a 780 789 87
a 781 782 5
a 781 791 24
a 781 790 47
a 782 793 2
a 782 792 38
a 782 801 52
a 783 794 49
a 783 793 11
a 783 792 34
a 784 795 1
a 784 794 70
a 784 793 93
a 785 796 9
a 785 795 51
a 785 794 72
a 786 797 88
a 786 796 57
a 786 795 82
a 787 798 63
a 787 797 29
a 787 796 89
a 788 799 19
a 788 798 84
a 788 797 52
a 789 800 46
a 789 799 24
a 789 798 60
a 790 801 83
a 790 800 62
a 790 799 15
a 791 792 58
a 791 801 8
a 791 800 73
a 792 803 95
a 792 802 12
a 792 811 30
a 793 804 58
a 793 803 45
a 793 802 31
a 794 805 27
a 794 804 38
a 794 803 79
a 795 806 29
a 795 805 61
a 795 804 79
a 796 807 85
a 796 806 42
a 796 805 87
a 797 808 66
a 797 807 83
a 797 806 26
a 798 809 49
a 798 808 34
a 798 807 40
a 799 810 24
a 799 809 45
a 799 808 59
a 800 811 86
a 800 810 11
a 800 809 56
a 801 802 45
a 801 811 84
a 801 810 90
a 802 813 56
a 802 812 13
a 802 821 47
a 803 814 1
a 803 813 43
a 803 812 94
a 804 815 90
a 804 814 21
a 804 813 51
a 805 816 50
a 805 815 51
a 805 814 29
a 806 817 43
a 806 816 38
a 806 815 57
a 807 818 25
a 807 817 15
a 807 816 42
a 808 819 10
a 808 818 55
a 808 817 59
a 809 820 55
a 809 819 65
a 809 818 59
a 810 821 17
a 810 820 20
a 810 819 82
a 811 812 100
a 811 821 61
a 811 820 19
a 812 823 64
a 812 822 7
a 812 831 64
a 813 824 6
a 813 823 100
a 813 822 19
a 814 825 78
a 814 824 2
a 814 823 71
a 815 826 29
a 815 825 30
a 815 824 12
a 816 827 18
a 816 826 87
a 816 825 13
a 817 828 84
a 817 827 80
a 817 826 56
a 818 829 38
a 818 828 90
a 818 827 80
a 819 830 54
a 819 829 48
a 819 828 90
a 820 831 25
a 820 830 81
a 820 829 96
a 821 822 85
a 821 831 100
a 821 830 12
a 822 833 44
a 822 832 15
a 822 841 12
a 823 834 43
a 823 833 85
a 823 832 27
a 824 835 97
a 824 834 8
a 824 833 33
a 825 836 26
a 825 835 19
a 825 834 62
a 826 837 64
a 826 836 32
a 826 835 42
a 827 838 95
a 827 837 87
a 827 836 11
a 828 839 36
a 828 838 18
a 828 837 95
a 829 840 83
a 829 839 59
a 829 838 84
a 830 841 16
a 830 840 54
a 830 839 38
a 831 832 15
a 831 841 18
a 831 840 14
a 832 843 81
a 832 842 81
a 832 851 99
a 833 844 65
a 833 843 7
a 833 842 42
a 834 845 24
a 834 844 39
a 834 843 36
a 835 846 43
a 835 845 53
a 835 844 32
a 836 847 26
a 836 846 46
a 836 845 10
a 837 848 64
a 837 847 57
a 837 846 25
a 838 849 81
a 838 848 3
a 838 847 72
a 839 850 92
a 839 849 86
a 839 848 7
a 840 851 45
a 840 850 75
a 840 849 90
a 841 842 62
a 841 851 89
a 841 850 57
a 842 853 42
a 842 852 39
a 842 861 71
a 843 854 49
a 843 853 80
a 843 852 3
a 844 855 39
a 844 854 67
a 844 853 19
a 845 856 43
a 845 855 51
a 845 854 43
a 846 857 89
a 846 856 60
a 846 855 85
a 847 858 97
a 847 857 36
a 847 856 62
a 848 859 99
a 848 858 7
a 848 857 25
a 849 860 36
a 849 859 14
a 849 858 57
a 850 861 63
a 850 860 55
a 850 859 48
a 851 852 3
a 851 861 11
a 851 860 45
a 852 863 41
a 852 862 33
a 852 871 58
a 853 864 72
a 853 863 87
a 853 862 52
a 854 865 90
a 854 864 5
a 854 863 100
a 855 866 40
a 855 865 47
a 855 864 90
a 856 867 51
a 856 866 83
a 856 865 85
a 857 868 87
a 857 867 44
a 857 866 73
a 858 869 93
a 858 868 20
a 858 867 69
a 859 870 58
a 859 869 77
a 859 868 19
a 860 871 64
a 860 870 76
a 860 869 54
a 861 862 26
a 861 871 20
a 861 870 16
a 862 873 10
a 862 872 78
a 862 881 70
a 863 874 96
a 863 873 81
a 863 872 10
a 864 875 1
a 864 874 32
a 864 873 33
a 865 876 47
a 865 875 21
a 865 874 23
a 866 877 30
a 866 876 57
a 866 875 14
a 867 878 25
a 867 877 29
a 867 876 65
a 868 879 45
a 868 878 49
a 868 877 51
a 869 880 73
a 869 879 19
a 869 878 95
a 870 881 48
a 870 880 73
a 870 879 5
a 871 872 20
a 871 881 40
a 871 880 68
a 872 883 49
a 872 882 10
a 872 891 94
a 873 884 29
a 873 883 71
a 873 882 55
a 874 885 60
a 874 884 56
a 874 883 51
a 875 886 32
a 875 885 30
a 875 884 51
a 876 887 89
a 876 886 43
a 876 885 49
a 877 888 69
a 877 887 7
a 877 886 78
a 878 889 70
a 878 888 9
a 878 887 55
a 879 890 88
a 879 889 4
a 879 888 99
a 880 891 12
a 880 890 8
a 880 889 71
a 881 882 4
a 881 891 27
a 881 890 70
a 882 893 65
a 882 892 72
a 882 901 41
a 883 894 87
a 883 893 27
a 883 892 89
a 884 895 42
a 884 894 77
a 884 893 17
a 885 896 23
a 885 895 79
a 885 894 28
a 886 897 66
a 886 896 27
a 886 895 60
a 887 898 24
a 887 897 5
a 887 896 100
a 888 899 33
a 888 898 59
a 888 897 68
a 889 900 88
a 889 899 9
a 889 898 89
a 890 901 95
a 890 900 31
a 890 899 77
a 891 892 73
a 891 901 52
a 891 900 40
a 892 903 45
a 892 902 93
a 892 911 43
a 893 904 23
a 893 903 81
a 893 902 7
a 894 905 99
a 894 904 50
a 894 903 94
a 895 906 77
a 895 905 29
a 895 904 87
a 896 907 3
a 896 906 88
a 896 905 10
a 897 908 59
a 897 907 39
a 897 906 27
a 898 909 69
a 898 908 59
a 898 907 50
a 899 910 29
a 899 909 47
a 899 908 82
a 900 911 59
a 900 910 75
a 900 909 21
a 901 902 63
a 901 911 15
a 901 910 15
a 902 913 55
a 902 912 57
a 902 921 40
a 903 914 35
a 903 913 16
a 903 912 36
a 904 915 36
a 904 914 61
a 904 913 58
a 905 916 65
a 905 915 47
a 905 914 8
a 906 917 4
a 906 916 56
a 906 915 84
a 907 918 43
a 907 917 34
a 907 916 38
a 908 919 1
a 908 918 84
a 908 917 49
a 909 920 47
a 909 919 17
a 909 918 69
a 910 921 22
a 910 920 38
a 910 919 50
a 911 912 88
a 911 921 4
a 911 920 60
a 912 923 44
a 912 922 43
a 912 931 22
a 913 924 11
a 913 923 78
a 913 922 76
a 914 925 71
a 914 924 87
a 914 923 63
a 915 926 18
a 915 925 94
a 915 924 98
a 916 927 25
a 916 926 29
a 916 925 62
a 917 928 59
a 917 927 67
a 917 926 18
a 918 929 94
a 918 928 67
a 918 927 60
a 919 930 10
a 919 929 87
a 919 928 60
a 920 931 47
a 920 930 36
a 920 929 58
a 921 922 3
a 921 931 96
a 921 930 31
a 922 933 97
a 922 932 17
a 922 941 18
a 923 934 75
a 923 933 93
a 923 932 14
a 924 935 61
a 924 934 7
a 924 933 24
a 925 936 7
a 925 935 4
a 925 934 95
a 926 937 35
a 926 936 18
a 926 935 64
a 927 938 53
a 927 937 35
a 927 936 40
a 928 939 19
a 928 938 94
a 928 937 50
a 929 940 6
a 929 939 5
a 929 938 43
a 930 941 93
a 930 940 14
a 930 939 5
a 931 932 88
a 931 941 45
a 931 940 3
a 932 943 57
a 932 942 62
a 932 951 5
a 933 944 49
a 933 943 27
a 933 942 2
a 934 945 55
a 934 944 51
a 934 943 28
a 935 946 10
a 935 945 97
a 935 944 40
a 936 947 27
a 936 946 12
a 936 945 46
a 937 948 13
a 937 947 3
a 937 946 81
a 938 949 58
a 938 948 53
a 938 947 33
a 939 950 62
a 939 949 47
a 939 948 4
a 940 951 28
a 940 950 51
a 940 949 61
a 941 942 72
a 941 951 54
a 941 950 53
a 942 953 85
a 942 952 58
a 942 961 41
a 943 954 12
a 943 953 11
a 943 952 49
a 944 955 14
a 944 954 38
a 944 953 49
a 945 956 62
a 945 955 78
a 945 954 55
a 946 957 25
a 946 956 75
a 946 955 64
a 947 958 27
a 947 957 55
a 947 956 43
a 948 959 79
a 948 958 40
a 948 957 55
a 949 960 26
a 949 959 43
a 949 958 65
a 950 961 28
a 950 960 3
a 950 959 78
a 951 952 81
a 951 961 55
a 951 960 5
a 952 963 91
a 952 962 47
a 952 971 76
a 953 964 1
a 953 963 95
a 953 962 61
a 954 965 91
a 954 964 43
a 954 963 24
a 955 966 20
a 955 965 97
a 955 964 89
a 956 967 94
a 956 966 13
a 956 965 50
a 957 968 49
a 957 967 55
a 957 966 26
a 958 969 88
a 958 968 61
a 958 967 52
a 959 970 30
a 959 969 25
a 959 968 83
a 960 971 84
a 960 970 3
a 960 969 60
a 961 962 38
a 961 971 7
a 961 970 87
a 962 973 37
a 962 972 35
a 962 981 68
a 963 974 31
a 963 973 47
a 963 972 10
a 964 975 26
a 964 974 70
a 964 973 10
a 965 976 74
a 965 975 58
a 965 974 52
a 966 977 86
a 966 976 59
a 966 975 71
a 967 978 40
a 967 977 84
a 967 976 65
a 968 979 53
a 968 978 87
a 968 977 65
a 969 980 77
a 969 979 69
a 969 978 4
a 970 981 31
a 970 980 28
a 970 979 33
a 971 972 38
a 971 981 67
a 971 980 68
a 972 983 72
a 972 982 34
a 972 991 5
a 973 984 18
a 973 983 95
a 973 982 93
a 974 985 39
a 974 984 56
a 974 983 76
a 975 986 48
a 975 985 8
a 975 984 1
a 976 987 58
a 976 986 78
a 976 985 74
a 977 988 93
a 977 987 94
a 977 986 60
a 978 989 79
a 978 988 58
a 978 987 51
a 979 990 48
a 979 989 61
a 979 988 3
a 980 991 27
a 980 990 45
a 980 989 32
a 981 982 93
a 981 991 12
a 981 990 62
a 982 993 78
a 982 992 69
a 982 1001 99
a 983 994 72
a 983 993 61
a 983 992 22
a 984 995 80
a 984 994 88
a 984 993 91
a 985 996 87
a 985 995 88
a 985 994 81
a 986 997 64
a 986 996 14
a 986 995 80
a 987 998 10
a 987 997 25
a 987 996 37
a 988 999 67
a 988 998 75
a 988 997 29
a 989 1000 28
a 989 999 30
a 989 998 60
a 990 1001 72
a 990 1000 61
a 990 999 59
a 991 992 36
a 991 1001 74
a 991 1000 85
a 992 1002 300
a 993 1002 300
a 994 1002 300
a 995 1002 300
a 996 1002 300
a 997 1002 300
a 998 1002 300
a 999 1002 300
a 1000 1002 300
a 1001 1002 300
